n=30;
t=40;
profit=[5 3 7 7 9 3 9 2 6 8 2 3 9 7 1 10 3 8 6 2 9 2 9 4 3 2 10 8 5 1];
length=[2 2 4 4 2 1 4 4 1 4 1 4 4 4 1 5 1 1 5 2 5 2 4 1 5 1 1 4 4 2];
min_deliver=[24 10 20 22 15 33 28 7 34 5 14 5 30 7 1 16 13 4 26 9 39 12 29 12 31 1 12 23 10 36];
max_deliver=[27 10 20 26 18 33 29 10 38 5 16 6 33 11 5 18 15 8 28 13 39 16 30 12 35 5 17 28 10 37];
surface=[5 2 1 2 5 4 1 3 1 1 4 1 4 3 2 2 5 1 3 4 4 3 5 2 1 2 3 5 1 5];
surface_capacity=15;
